Route #1: 5 12 17 25 30 31 32 18 13 1 2 14 19 26 20 6 7 21 8 3 15 23 9 16 10 4 11 29 24 28 27 41 35 36 42 57 60 82 83 95 88 81 94 93 92 79 80 74 65 66 56 49 55 40 34 22 33 39 48 64 73 63 54 38 47 37 46 52 53 62 72 71 86 87 77 78 91 100 99 98 90 76 85 97 96 84 89 75 61 67 68 58 69 70 59 51 45 44 50 43
Cost 45173
